Geometry = GenFormat { 
50 C 
C 
   1  1    1.4000000000    0.0000000000    0.0000000000
   2  1   -1.4000000000    0.0000000000    0.0000000000
   3  1    3.5300000000    1.2297560730    0.0000000000
   4  1    0.7300000000    1.2297560730    0.0000000000
   5  1    5.6600000000    2.4595121460    0.0000000000
   6  1    2.8600000000    2.4595121460    0.0000000000
   7  1    7.7900000000    3.6892682190    0.0000000000
   8  1    4.9900000000    3.6892682190    0.0000000000
   9  1    9.9200000000    4.9190242920    0.0000000000
  10  1    7.1200000000    4.9190242920    0.0000000000
  11  1    3.5300000000   -1.2297560730    0.0000000000
  12  1    0.7300000000   -1.2297560730    0.0000000000
  13  1    5.6600000000    0.0000000000    0.0000000000
  14  1    2.8600000000    0.0000000000    0.0000000000
  15  1    7.7900000000    1.2297560730    0.0000000000
  16  1    4.9900000000    1.2297560730    0.0000000000
  17  1    9.9200000000    2.4595121460    0.0000000000
  18  1    7.1200000000    2.4595121460    0.0000000000
  19  1   12.0500000000    3.6892682190    0.0000000000
  20  1    9.2500000000    3.6892682190    0.0000000000
  21  1    5.6600000000   -2.4595121460    0.0000000000
  22  1    2.8600000000   -2.4595121460    0.0000000000
  23  1    7.7900000000   -1.2297560730    0.0000000000
  24  1    4.9900000000   -1.2297560730    0.0000000000
  25  1    9.9200000000    0.0000000000    0.0000000000
  26  1    7.1200000000    0.0000000000    0.0000000000
  27  1   12.0500000000    1.2297560730    0.0000000000
  28  1    9.2500000000    1.2297560730    0.0000000000
  29  1   14.1800000000    2.4595121460    0.0000000000
  30  1   11.3800000000    2.4595121460    0.0000000000
  31  1    7.7900000000   -3.6892682190    0.0000000000
  32  1    4.9900000000   -3.6892682190    0.0000000000
  33  1    9.9200000000   -2.4595121460    0.0000000000
  34  1    7.1200000000   -2.4595121460    0.0000000000
  35  1   12.0500000000   -1.2297560730    0.0000000000
  36  1    9.2500000000   -1.2297560730    0.0000000000
  37  1   14.1800000000    0.0000000000    0.0000000000
  38  1   11.3800000000    0.0000000000    0.0000000000
  39  1   16.3100000000    1.2297560730    0.0000000000
  40  1   13.5100000000    1.2297560730    0.0000000000
  41  1    9.9200000000   -4.9190242920    0.0000000000
  42  1    7.1200000000   -4.9190242920    0.0000000000
  43  1   12.0500000000   -3.6892682190    0.0000000000
  44  1    9.2500000000   -3.6892682190    0.0000000000
  45  1   14.1800000000   -2.4595121460    0.0000000000
  46  1   11.3800000000   -2.4595121460    0.0000000000
  47  1   16.3100000000   -1.2297560730    0.0000000000
  48  1   13.5100000000   -1.2297560730    0.0000000000
  49  1   18.4400000000    0.0000000000    0.0000000000
  50  1   15.6400000000    0.0000000000    0.0000000000
}
Periodic = Yes
LatticeVectors = {
  1.0650000000E+01  -6.1487803650E+00   0.0000000000E+00
  1.0650000000E+01   6.1487803650E+00   0.0000000000E+00
  0.0000000000E+00   0.0000000000E+00   1.0000000000E+02
}
        
         Driver = ConjugateGradient {
           MovedAtoms = 1:-1               # Move all atoms in the system
           MaxForceComponent = 1.0e-4      # Stop if maximal force below 1.0e-4
           MaxSteps = 0                    # Stop after maximal 100 steps
           OutputPrefix = "geom.out"       # Final geometry in geom.out.{xyz,gen}
           ConvergentForcesOnly=no         # Stop the program from exiting badly when the scc doesnt converge
         }
         options ={
         WriteDetailedOut = No
         }   
         analysis ={
         WriteBandOut = No         
         }
         
         Hamiltonian = DFTB {
         # SCC = yes
         # SCCTolerance = 1.0E-5
         # MaxSCCIterations = 5
         # Charge = 0.0
          MaxAngularMomentum = {
C = "p"
 
          }
          solver = DivideAndConquer{}            # Specify the diagonalization routine that you want to use
          SlaterKosterFiles = Type2FileNames {    # File names from two atom type names
              Prefix = "mio/"  # Path as prefix
              Separator = "-"         # Dash between type names
              Suffix = ".skf"         # Suffix after second type name
              LowerCaseTypeName = No
          }
        }
        
