Geometry = GenFormat { 
50 C 
C  
 1    1   1.4000000000E+00   0.0000000000E+00   0.0000000000E+00   
 2    1  -1.4000000000E+00   0.0000000000E+00   0.0000000000E+00
 3    1   3.5300000000E+00   1.2297560730E+00   0.0000000000E+00
 4    1   7.3000000000E-01   1.2297560730E+00   0.0000000000E+00     
 5    1   5.6600000000E+00   2.4595121460E+00   0.0000000000E+00
 6    1   2.8600000000E+00   2.4595121460E+00   0.0000000000E+00
 7    1   7.7900000000E+00   3.6892682190E+00   0.0000000000E+00  
 8    1   4.9900000000E+00   3.6892682190E+00   0.0000000000E+00 
 9    1   9.9200000000E+00   4.9190242920E+00   0.0000000000E+00
 10   1   7.1200000000E+00   4.9190242920E+00   0.0000000000E+00  
 11   1   3.5300000000E+00  -1.2297560730E+00   0.0000000000E+00 
 12   1   7.3000000000E-01  -1.2297560730E+00   0.0000000000E+00  
 13   1   5.6600000000E+00   0.0000000000E+00   0.0000000000E+00
 14   1   2.8600000000E+00   0.0000000000E+00   0.0000000000E+00 
 15   1   7.7900000000E+00   1.2297560730E+00   0.0000000000E+00 
 16   1   4.9900000000E+00   1.2297560730E+00   0.0000000000E+00
 17   1   9.9200000000E+00   2.4595121460E+00   0.0000000000E+00  
 18   1   7.1200000000E+00   2.4595121460E+00   0.0000000000E+00 
 19   1   1.2050000000E+01   3.6892682190E+00   0.0000000000E+00
 20   1   9.2500000000E+00   3.6892682190E+00   0.0000000000E+00 
 21   1   5.6600000000E+00  -2.4595121460E+00   0.0000000000E+00   
 22   1   2.8600000000E+00  -2.4595121460E+00   0.0000000000E+00
 23   1   7.7900000000E+00  -1.2297560730E+00   0.0000000000E+00
 24   1   4.9900000000E+00  -1.2297560730E+00   0.0000000000E+00   
 25   1   9.9200000000E+00   0.0000000000E+00   0.0000000000E+00
 26   1   7.1200000000E+00   0.0000000000E+00   0.0000000000E+00   
 27   1   1.2050000000E+01   1.2297560730E+00   0.0000000000E+00  
 28   1   9.2500000000E+00   1.2297560730E+00   0.0000000000E+00  
 29   1   1.4180000000E+01   2.4595121460E+00   0.0000000000E+00
 30   1   1.1380000000E+01   2.4595121460E+00   0.0000000000E+00
 31   1   7.7900000000E+00  -3.6892682190E+00   0.0000000000E+00
 32   1   4.9900000000E+00  -3.6892682190E+00   0.0000000000E+00 
 33   1   9.9200000000E+00  -2.4595121460E+00   0.0000000000E+00  
 34   1   7.1200000000E+00  -2.4595121460E+00   0.0000000000E+00
 35   1   1.2050000000E+01  -1.2297560730E+00   0.0000000000E+00 
 36   1   9.2500000000E+00  -1.2297560730E+00   0.0000000000E+00  
 37   1   1.4180000000E+01   0.0000000000E+00   0.0000000000E+00  
 38   1   1.1380000000E+01   0.0000000000E+00   0.0000000000E+00
 39   1   1.6310000000E+01   1.2297560730E+00   0.0000000000E+00  
 40   1   1.3510000000E+01   1.2297560730E+00   0.0000000000E+00 
 41   1   9.9200000000E+00  -4.9190242920E+00   0.0000000000E+00  
 42   1   7.1200000000E+00  -4.9190242920E+00   0.0000000000E+00  
 43   1   1.2050000000E+01  -3.6892682190E+00   0.0000000000E+00
 44   1   9.2500000000E+00  -3.6892682190E+00   0.0000000000E+00  
 45   1   1.4180000000E+01  -2.4595121460E+00   0.0000000000E+00  
 46   1   1.1380000000E+01  -2.4595121460E+00   0.0000000000E+00 
 47   1   1.6310000000E+01  -1.2297560730E+00   0.0000000000E+00  
 48   1   1.3510000000E+01  -1.2297560730E+00   0.0000000000E+00
 49   1   1.8440000000E+01   0.0000000000E+00   0.0000000000E+00
 50   1   1.5640000000E+01   0.0000000000E+00   0.0000000000E+00
}
Periodic = Yes
LatticeVectors = {
  1.0650000000E+01  -6.1487803650E+00   0.0000000000E+00
  1.0650000000E+01   6.1487803650E+00   0.0000000000E+00
  0.0000000000E+00   0.0000000000E+00   1.0000000000E+02
}
  
         Driver = ConjugateGradient {
           MovedAtoms = 1:-1               # Move all atoms in the system
           MaxForceComponent = 1.0e-4      # Stop if maximal force below 1.0e-4
           MaxSteps = 0                    # Stop after maximal 100 steps
           OutputPrefix = "geom.out"       # Final geometry in geom.out.{xyz,gen}
           ConvergentForcesOnly=no         # Stop the program from exiting badly when the scc doesnt converge
         }
         options ={
         WriteDetailedOut = No
         }   
         analysis ={
         WriteBandOut = No         
         }
         
         Hamiltonian = DFTB {
         # SCC = yes
         # SCCTolerance = 1.0E-5
         # MaxSCCIterations = 5
         # Charge = 0.0
          MaxAngularMomentum = {
C = "p"
H = "s"
O = "p"
 
          }
          solver = DivideAndConquer{}            # Specify the diagonalization routine that you want to use
          SlaterKosterFiles = Type2FileNames {    # File names from two atom type names
              Prefix = "mio/"  # Path as prefix
              Separator = "-"         # Dash between type names
              Suffix = ".skf"         # Suffix after second type name
              LowerCaseTypeName = No
          }
        }
        
