Geometry = GenFormat { 
314 C 
C H 
   1  1   -1.1328290000    0.7383900000    0.0000000000
   2  1   -1.1328290000    2.2783900000    0.0000000000
   3  1   -2.5848290000    2.7923900000    0.0000000000
   4  1   -2.5848290000    4.3323900000    0.0000000000
   5  1   -4.0368290000    4.8453900000    0.0000000000
   6  1   -4.0368290000    6.3853900000    0.0000000000
   7  1    0.3191710000    0.2253900000    0.0000000000
   8  2   -1.6468290000    0.3753900000    0.8900000000
   9  2   -1.6468290000    0.3753900000   -0.8900000000
  10  2   -0.6198290000    2.6423900000    0.8900000000
  11  2   -0.6198290000    2.6423900000   -0.8900000000
  12  2   -3.0988290000    2.4283900000   -0.8900000000
  13  2   -3.0988290000    2.4283900000    0.8900000000
  14  2   -2.0718290000    4.6953900000    0.8900000000
  15  2   -2.0718290000    4.6953900000   -0.8900000000
  16  2   -4.5508290000    4.4823900000   -0.8900000000
  17  2   -4.5508290000    4.4823900000    0.8900000000
  18  2   -3.5228290000    6.7483900000    0.8900000000
  19  2   -3.5228290000    6.7483900000   -0.8900000000
  20  1    0.3191710000   -1.3146100000    0.0000000000
  21  2    0.8321710000    0.5883900000   -0.8900000000
  22  2    0.8321710000    0.5883900000    0.8900000000
  23  1    1.7701710000   -1.8276100000    0.0000000000
  24  2   -0.1948290000   -1.6776100000    0.8900000000
  25  2   -0.1948290000   -1.6776100000   -0.8900000000
  26  1    1.7701710000   -3.3676100000    0.0000000000
  27  2    2.2841710000   -1.4646100000   -0.8900000000
  28  2    2.2841710000   -1.4646100000    0.8900000000
  29  1    3.2221710000   -3.8816100000    0.0000000000
  30  2    1.2571710000   -3.7316100000    0.8900000000
  31  2    1.2571710000   -3.7316100000   -0.8900000000
  32  1    3.2221710000   -5.4216100000    0.0000000000
  33  2    3.7361710000   -3.5176100000   -0.8900000000
  34  2    3.7361710000   -3.5176100000    0.8900000000
  35  1    4.6741710000   -5.9346100000    0.0000000000
  36  2    2.7091710000   -5.7846100000    0.8900000000
  37  2    2.7091710000   -5.7846100000   -0.8900000000
  38  2    5.1881710000   -5.5716100000   -0.8900000000
  39  2    5.1881710000   -5.5716100000    0.8900000000
  40  1   -7.9688290000   12.3953900000   -0.0000000000
  41  1   -7.9688290000   10.8553900000   -0.0000000000
  42  1   -6.5168300000   10.3413900000   -0.0000000000
  43  1   -6.5168300000    8.8013900000   -0.0000000000
  44  1   -5.0648290000    8.2883900000   -0.0000000000
  45  1   -5.0648290000    6.7483900000   -0.0000000000
  46  1   -9.4208290000   12.9083900000   -0.0000000000
  47  2   -7.4548300000   12.7583900000    0.8900000000
  48  2   -7.4548290000   12.7583900000   -0.8900000000
  49  2   -8.4818290000   10.4913900000    0.8900000000
  50  2   -8.4818290000   10.4913900000   -0.8900000000
  51  2   -6.0028290000   10.7053900000   -0.8900000000
  52  2   -6.0028290000   10.7053900000    0.8900000000
  53  2   -7.0298290000    8.4383900000    0.8900000000
  54  2   -7.0298290000    8.4383900000   -0.8900000000
  55  2   -4.5508290000    8.6513900000   -0.8900000000
  56  2   -4.5508290000    8.6513900000    0.8900000000
  57  2   -5.5788300000    6.3853900000    0.8900000000
  58  2   -5.5788300000    6.3853900000   -0.8900000000
  59  1   -9.4208290000   14.4483900000   -0.0000000000
  60  2   -9.9338290000   12.5453900000   -0.8900000000
  61  2   -9.9338290000   12.5453900000    0.8900000000
  62  1  -10.8718300000   14.9613900000   -0.0000000000
  63  2   -8.9068290000   14.8113900000    0.8900000000
  64  2   -8.9068290000   14.8113900000   -0.8900000000
  65  1  -10.8718300000   16.5013900000   -0.0000000000
  66  2  -11.3858290000   14.5983900000   -0.8900000000
  67  2  -11.3858300000   14.5983900000    0.8900000000
  68  1  -12.3238290000   17.0153900000   -0.0000000000
  69  2  -10.3588290000   16.8653900000    0.8900000000
  70  2  -10.3588290000   16.8653900000   -0.8900000000
  71  1  -12.3238290000   18.5553900000   -0.0000000000
  72  2  -12.8378290000   16.6513900000   -0.8900000000
  73  2  -12.8378290000   16.6513900000    0.8900000000
  74  1  -13.7758300000   19.0683900000   -0.0000000000
  75  2  -11.8108290000   18.9183900000    0.8900000000
  76  2  -11.8108290000   18.9183900000   -0.8900000000
  77  2  -14.2898300000   18.7053900000   -0.8900000000
  78  2  -14.2898300000   18.7053900000    0.8900000000
  79  1    9.0320210000  -11.6433640000    0.0000000000
  80  1    7.5798940000  -11.1305980000    0.0000000000
  81  1    7.5786880000   -9.5903070000    0.0000000000
  82  1    6.1265610000   -9.0775420000    0.0000000000
  83  1    6.1262970000   -7.5375830000    0.0000000000
  84  1    4.6741710000   -7.0248180000    0.0000000000
  85  1    9.0322850000  -13.1833220000    0.0000000000
  86  2    9.5454520000  -11.2795590000   -0.8900000000
  87  2    9.5454520000  -11.2795590000    0.8900000000
  88  2    7.0658540000  -11.4931270000   -0.8900000000
  89  2    7.0658540000  -11.4931270000    0.8900000000
  90  2    8.0930610000   -9.2268350000    0.8900000000
  91  2    8.0930610000   -9.2268350000   -0.8900000000
  92  2    5.6134630000   -9.4404030000   -0.8900000000
  93  2    5.6134630000   -9.4404030000    0.8900000000
  94  2    6.6397280000   -7.1737780000    0.8900000000
  95  2    6.6397280000   -7.1737780000   -0.8900000000
  96  2    4.1607400000   -7.3886230000   -0.8900000000
  97  2    4.1607400000   -7.3886230000    0.8900000000
  98  1   10.4844120000  -13.6960870000    0.0000000000
  99  2    8.5191870000  -13.5461840000    0.8900000000
 100  2    8.5191870000  -13.5461840000   -0.8900000000
 101  1   10.4850080000  -15.2351030000    0.0000000000
 102  2   10.9978420000  -13.3322830000   -0.8900000000
 103  2   10.9978420000  -13.3322830000    0.8900000000
 104  1   11.9371350000  -15.7478680000    0.0000000000
 105  2    9.9715770000  -15.5989080000    0.8900000000
 106  2    9.9715770000  -15.5989080000   -0.8900000000
 107  1   11.9383420000  -17.2881600000    0.0000000000
 108  2   12.4511750000  -15.3853390000   -0.8900000000
 109  2   12.4511750000  -15.3853390000    0.8900000000
 110  1   13.3904680000  -17.8009250000    0.0000000000
 111  2   11.4239680000  -17.6516320000    0.8900000000
 112  2   11.4239680000  -17.6516320000   -0.8900000000
 113  1   13.3907320000  -19.3408840000    0.0000000000
 114  2   13.9035660000  -17.4380630000   -0.8900000000
 115  2   13.9035660000  -17.4380630000    0.8900000000
 116  2   12.8773010000  -19.7046890000    0.8900000000
 117  2   12.8773010000  -19.7046890000   -0.8900000000
 118  1  -18.1336800000   24.7771440000   -0.0000000000
 119  1  -16.6815530000   24.2643790000   -0.0000000000
 120  1  -16.6803460000   22.7240870000   -0.0000000000
 121  1  -15.2282200000   22.2113220000   -0.0000000000
 122  1  -15.2279560000   20.6713630000   -0.0000000000
 123  1  -13.7758300000   20.1585980000   -0.0000000000
 124  1  -18.1339440000   26.3171020000   -0.0000000000
 125  2  -18.6471100000   24.4133390000   -0.8900000000
 126  2  -18.6471100000   24.4133390000    0.8900000000
 127  2  -16.1675120000   24.6269070000   -0.8900000000
 128  2  -16.1675130000   24.6269070000    0.8900000000
 129  2  -17.1947200000   22.3606150000    0.8900000000
 130  2  -17.1947200000   22.3606150000   -0.8900000000
 131  2  -14.7151220000   22.5741840000   -0.8900000000
 132  2  -14.7151220000   22.5741840000    0.8900000000
 133  2  -15.7413870000   20.3075580000    0.8900000000
 134  2  -15.7413870000   20.3075580000   -0.8900000000
 135  2  -13.2623980000   20.5224030000   -0.8900000000
 136  2  -13.2623990000   20.5224030000    0.8900000000
 137  1  -19.5860700000   26.8298680000   -0.0000000000
 138  2  -17.6208460000   26.6799640000    0.8900000000
 139  2  -17.6208460000   26.6799640000   -0.8900000000
 140  1  -19.5866670000   28.3688830000   -0.0000000000
 141  2  -20.0995010000   26.4660630000   -0.8900000000
 142  2  -20.0995010000   26.4660630000    0.8900000000
 143  1  -21.0387940000   28.8816480000   -0.0000000000
 144  2  -19.0732360000   28.7326880000    0.8900000000
 145  2  -19.0732360000   28.7326880000   -0.8900000000
 146  1  -21.0400000000   30.4219400000   -0.0000000000
 147  2  -21.5528340000   28.5191190000   -0.8900000000
 148  2  -21.5528340000   28.5191190000    0.8900000000
 149  1  -22.4921270000   30.9347050000   -0.0000000000
 150  2  -20.5256270000   30.7854120000    0.8900000000
 151  2  -20.5256270000   30.7854120000   -0.8900000000
 152  1  -22.4923910000   32.4746640000   -0.0000000000
 153  2  -23.0052250000   30.5718430000   -0.8900000000
 154  2  -23.0052250000   30.5718430000    0.8900000000
 155  2  -21.9789600000   32.8384690000    0.8900000000
 156  2  -21.9789600000   32.8384690000   -0.8900000000
 157  1   17.3227320000  -25.3508840000    0.0000000000
 158  1   17.3227320000  -23.8108840000    0.0000000000
 159  1   15.8707320000  -23.2968840000    0.0000000000
 160  1   15.8707320000  -21.7568840000    0.0000000000
 161  1   14.4187320000  -21.2438840000    0.0000000000
 162  1   14.4187320000  -19.7038840000    0.0000000000
 163  1   18.7747320000  -25.8638840000    0.0000000000
 164  2   16.8087320000  -25.7138840000    0.8900000000
 165  2   16.8087320000  -25.7138840000   -0.8900000000
 166  2   17.8357320000  -23.4468840000    0.8900000000
 167  2   17.8357320000  -23.4468840000   -0.8900000000
 168  2   15.3567320000  -23.6608840000   -0.8900000000
 169  2   15.3567320000  -23.6608840000    0.8900000000
 170  2   16.3837320000  -21.3938840000    0.8900000000
 171  2   16.3837320000  -21.3938840000   -0.8900000000
 172  2   13.9047320000  -21.6068840000   -0.8900000000
 173  2   13.9047320000  -21.6068840000    0.8900000000
 174  2   14.9327320000  -19.3408840000    0.8900000000
 175  2   14.9327320000  -19.3408840000   -0.8900000000
 176  1   18.7747320000  -27.4038840000    0.0000000000
 177  2   19.2877320000  -25.5008840000   -0.8900000000
 178  2   19.2877320000  -25.5008840000    0.8900000000
 179  1   20.2257320000  -27.9168840000    0.0000000000
 180  2   18.2607320000  -27.7668840000    0.8900000000
 181  2   18.2607320000  -27.7668840000   -0.8900000000
 182  1   20.2257320000  -29.4568840000    0.0000000000
 183  2   20.7397320000  -27.5538840000   -0.8900000000
 184  2   20.7397320000  -27.5538840000    0.8900000000
 185  1   21.6777320000  -29.9708840000    0.0000000000
 186  2   19.7127320000  -29.8208840000    0.8900000000
 187  2   19.7127320000  -29.8208840000   -0.8900000000
 188  1   21.6777320000  -31.5108840000    0.0000000000
 189  2   22.1917320000  -29.6068840000   -0.8900000000
 190  2   22.1917320000  -29.6068840000    0.8900000000
 191  1   23.1297320000  -32.0238840000    0.0000000000
 192  2   21.1647320000  -31.8738840000    0.8900000000
 193  2   21.1647320000  -31.8738840000   -0.8900000000
 194  2   23.6437320000  -31.6608840000   -0.8900000000
 195  2   23.6437320000  -31.6608840000    0.8900000000
 196  1  -26.4243910000   38.4846640000   -0.0000000000
 197  1  -26.4243910000   36.9446640000   -0.0000000000
 198  1  -24.9723910000   36.4306640000   -0.0000000000
 199  1  -24.9723910000   34.8906640000   -0.0000000000
 200  1  -23.5203910000   34.3776640000   -0.0000000000
 201  1  -23.5203910000   32.8376640000   -0.0000000000
 202  1  -27.8763910000   38.9976640000   -0.0000010000
 203  2  -25.9103910000   38.8476640000    0.8899990000
 204  2  -25.9103910000   38.8476640000   -0.8900000000
 205  2  -26.9373910000   36.5806640000    0.8899990000
 206  2  -26.9373910000   36.5806640000   -0.8900000000
 207  2  -24.4583910000   36.7946640000   -0.8900000000
 208  2  -24.4583910000   36.7946640000    0.8900000000
 209  2  -25.4853910000   34.5276640000    0.8900000000
 210  2  -25.4853910000   34.5276640000   -0.8900000000
 211  2  -23.0063900000   34.7406640000   -0.8900000000
 212  2  -23.0063900000   34.7406640000    0.8900000000
 213  2  -24.0343910000   32.4746640000    0.8900000000
 214  2  -24.0343910000   32.4746640000   -0.8900000000
 215  1  -27.8763910000   40.5376640000   -0.0000010000
 216  2  -28.3893910000   38.6346640000   -0.8900010000
 217  2  -28.3893910000   38.6346640000    0.8899990000
 218  1  -29.3273910000   41.0506640000   -0.0000010000
 219  2  -27.3623910000   40.9006640000    0.8899990000
 220  2  -27.3623910000   40.9006640000   -0.8900010000
 221  1  -29.3273910000   42.5906640000   -0.0000010000
 222  2  -29.8413910000   40.6876640000   -0.8900010000
 223  2  -29.8413910000   40.6876640000    0.8899990000
 224  1  -30.7793910000   43.1046640000   -0.0000010000
 225  2  -28.8143910000   42.9546640000    0.8899990000
 226  2  -28.8143910000   42.9546640000   -0.8900010000
 227  1  -30.7793910000   44.6446640000   -0.0000010000
 228  2  -31.2933910000   42.7406640000   -0.8900010000
 229  2  -31.2933910000   42.7406640000    0.8899990000
 230  1  -32.2313910000   45.1576640000   -0.0000010000
 231  2  -30.2663910000   45.0076640000    0.8899990000
 232  2  -30.2663910000   45.0076640000   -0.8900010000
 233  2  -32.2313910000   46.2476640000   -0.0000010000
 234  2  -32.7453910000   44.7946640000   -0.8900010000
 235  2  -32.7453910000   44.7946640000    0.8899990000
 236  1   27.4875820000  -37.7326380000    0.0000000000
 237  1   26.0354560000  -37.2198730000    0.0000000000
 238  1   26.0342490000  -35.6795810000    0.0000000000
 239  1   24.5821220000  -35.1668160000    0.0000000000
 240  1   24.5818590000  -33.6268570000    0.0000000000
 241  1   23.1297320000  -33.1140920000    0.0000000000
 242  1   27.4878460000  -39.2725960000    0.0000000000
 243  2   28.0010130000  -37.3688330000   -0.8900000000
 244  2   28.0010130000  -37.3688330000    0.8900000000
 245  2   25.5214150000  -37.5824010000   -0.8900000000
 246  2   25.5214150000  -37.5824010000    0.8900000000
 247  2   26.5486230000  -35.3161090000    0.8900000000
 248  2   26.5486230000  -35.3161090000   -0.8900000000
 249  2   24.0690250000  -35.5296780000   -0.8900000000
 250  2   24.0690250000  -35.5296780000    0.8900000000
 251  2   25.0952890000  -33.2630520000    0.8900000000
 252  2   25.0952890000  -33.2630520000   -0.8900000000
 253  2   22.6163010000  -33.4778970000   -0.8900000000
 254  2   22.6163010000  -33.4778970000    0.8900000000
 255  1   28.9399730000  -39.7853610000    0.0000000000
 256  2   26.9747480000  -39.6354580000    0.8900000000
 257  2   26.9747480000  -39.6354580000   -0.8900000000
 258  1   28.9405690000  -41.3243770000    0.0000000000
 259  2   29.4534030000  -39.4215570000   -0.8900000000
 260  2   29.4534030000  -39.4215570000    0.8900000000
 261  1   30.3926960000  -41.8371420000    0.0000000000
 262  2   28.4271390000  -41.6881820000    0.8900000000
 263  2   28.4271390000  -41.6881820000   -0.8900000000
 264  1   30.3939030000  -43.3774340000    0.0000000000
 265  2   30.9067370000  -41.4746130000   -0.8900000000
 266  2   30.9067370000  -41.4746130000    0.8900000000
 267  1   31.8460290000  -43.8901990000    0.0000000000
 268  2   29.8795290000  -43.7409060000    0.8900000000
 269  2   29.8795290000  -43.7409060000   -0.8900000000
 270  1   31.8462930000  -45.4301580000    0.0000000000
 271  2   32.3591280000  -43.5273370000   -0.8900000000
 272  2   32.3591280000  -43.5273370000    0.8900000000
 273  2   31.3328630000  -45.7939630000    0.8900000000
 274  2   31.3328630000  -45.7939630000   -0.8900000000
 275  1   35.7782930000  -51.4401580000    0.0000000000
 276  1   35.7782930000  -49.9001580000    0.0000000000
 277  1   34.3262930000  -49.3861580000    0.0000000000
 278  1   34.3262930000  -47.8461580000    0.0000000000
 279  1   32.8742930000  -47.3331580000    0.0000000000
 280  1   32.8742930000  -45.7931580000    0.0000000000
 281  1   37.2302930000  -51.9531580000    0.0000000000
 282  2   35.2642930000  -51.8031580000    0.8900000000
 283  2   35.2642930000  -51.8031580000   -0.8900000000
 284  2   36.2912930000  -49.5361580000    0.8900000000
 285  2   36.2912930000  -49.5361580000   -0.8900000000
 286  2   33.8122930000  -49.7501580000   -0.8900000000
 287  2   33.8122930000  -49.7501580000    0.8900000000
 288  2   34.8392930000  -47.4831580000    0.8900000000
 289  2   34.8392930000  -47.4831580000   -0.8900000000
 290  2   32.3602930000  -47.6961580000   -0.8900000000
 291  2   32.3602930000  -47.6961580000    0.8900000000
 292  2   33.3882930000  -45.4301580000    0.8900000000
 293  2   33.3882930000  -45.4301580000   -0.8900000000
 294  1   37.2302930000  -53.4931580000    0.0000000000
 295  2   37.7432930000  -51.5901580000   -0.8900000000
 296  2   37.7432930000  -51.5901580000    0.8900000000
 297  1   38.6812930000  -54.0061580000    0.0000000000
 298  2   36.7162930000  -53.8561580000    0.8900000000
 299  2   36.7162930000  -53.8561580000   -0.8900000000
 300  1   38.6812930000  -55.5461580000    0.0000000000
 301  2   39.1952930000  -53.6431580000   -0.8900000000
 302  2   39.1952930000  -53.6431580000    0.8900000000
 303  1   40.1332930000  -56.0601580000    0.0000000000
 304  2   38.1682930000  -55.9101580000    0.8900000000
 305  2   38.1682930000  -55.9101580000   -0.8900000000
 306  1   40.1332930000  -57.6001580000    0.0000000000
 307  2   40.6472930000  -55.6961580000   -0.8900000000
 308  2   40.6472930000  -55.6961580000    0.8900000000
 309  1   41.5852930000  -58.1131580000    0.0000000000
 310  2   39.6202930000  -57.9631580000    0.8900000000
 311  2   39.6202930000  -57.9631580000   -0.8900000000
 312  2   41.5852930000  -59.2031580000    0.0000000000
 313  2   42.0992930000  -57.7501580000   -0.8900000000
 314  2   42.0992930000  -57.7501580000    0.8900000000
}
        
         Driver = ConjugateGradient {
           MovedAtoms = 1:-1               # Move all atoms in the system
           MaxForceComponent = 1.0e-4      # Stop if maximal force below 1.0e-4
           MaxSteps = 0                    # Stop after maximal 100 steps
           OutputPrefix = "geom.out"       # Final geometry in geom.out.{xyz,gen}
           ConvergentForcesOnly=no         # Stop the program from exiting badly when the scc doesnt converge
         }
         options ={
         WriteDetailedOut = No
         }   
         analysis ={
         WriteBandOut = No         
         }
         
         Hamiltonian = DFTB {
         # SCC = no
         # SCCTolerance = 1.0E-5
         # MaxSCCIterations = 5
         # Charge = 0.0
          MaxAngularMomentum = {
C = "p"
H = "s"
 
          }
          solver = DivideAndConquer{}            # Specify the diagonalization routine that you want to use
          SlaterKosterFiles = Type2FileNames {    # File names from two atom type names
              Prefix = "mio/"  # Path as prefix
              Separator = "-"         # Dash between type names
              Suffix = ".skf"         # Suffix after second type name
              LowerCaseTypeName = No
          }
        }
        
